instances/knapsack/discrete/knapsack_60_2.kp
53547
60
267

82 8.2 47
51 5.1 75
5 0.5 45
90 9.0 61
11 1.1 2
64 6.4 10
96 9.6 94
2 0.2 100
32 3.2 39
53 5.3 47
2 0.2 100
18 1.8 52
31 3.1 76
51 5.1 43
27 2.7 76
19 1.9 53
64 6.4 63
23 2.3 7
4 0.4 75
37 3.7 50
24 2.4 90
94 9.4 16
43 4.3 37
29 2.9 73
11 1.1 54
79 7.9 67
77 7.7 17
82 8.2 88
68 6.8 51
42 4.2 85
24 2.4 94
38 3.8 1
94 9.4 45
52 5.2 20
67 6.7 80
48 4.8 82
47 4.7 82
63 6.3 88
43 4.3 23
13 1.3 40
74 7.4 21
24 2.4 38
49 4.9 46
40 4.0 12
82 8.2 71
1 0.1 80
80 8.0 5
40 4.0 13
50 5.0 5
63 6.3 26
77 7.7 12
71 7.1 47
24 2.4 72
47 4.7 6
19 1.9 77
46 4.6 23
72 7.2 87
49 4.9 89
95 9.5 93
5 0.5 88

68160
296

[4.36 4.48 1.12 1.64 2.37 0.51 3.17 3.37 3.56 4.1 0.88 1.82 3.54 4.0 1.6 0.15 1.34 4.68 1.98 4.9 1.6 0.79 4.47 2.37 1.81 4.21 4.29 0.0 2.64 1.13 0.94 0.67 2.83 2.61 2.02 4.61 1.51 3.64 3.64 2.37 1.0 4.39 0.67 4.67 1.34 0.55 3.08 1.88 1.98 0.6 3.01 3.9 0.81 2.33 3.01 2.64 2.06 1.71 4.47 4.15]

[23 43 5 90 11 41 72 47 100 49 87 90 11 87 4 12 100 83 68 37 44 43 11 46 48 63 17 79 25 38 65 59 67 44 87 72 91 12 23 42 98 65 69 65 2 42 93 53 78 11 94 15 40 95 92 3 32 90 27 13]
