instances/knapsack/discrete/knapsack_60_2.lp
\ Model knapsack_60_2
\ LP format - for model browsing. Use MPS format to capture full model detail.
\ Signature: 0x44a844bc7146bef8
Minimize
  - 4 x[0] - 21 x[1] - 78 x[2] - 46 x[3] - 96 x[4] - 15 x[5] - 60 x[6]
   - 78 x[7] - 9 x[8] - 21 x[9] - 37 x[10] - 25 x[11] - 9 x[12] - 88 x[13]
   - 69 x[14] - 54 x[15] - 4 x[16] - 88 x[17] - 81 x[18] - 36 x[19]
   - 4 x[20] - 93 x[21] - 22 x[22] - 90 x[23] - 71 x[24] - 73 x[25]
   - 70 x[26] - 22 x[27] - 32 x[28] - 7 x[29] - 31 x[30] - 50 x[31]
   - 34 x[32] - 57 x[33] - 74 x[34] - 83 x[35] - 27 x[36] - 93 x[37]
   - 45 x[38] - 82 x[39] - 94 x[40] - 44 x[41] - 80 x[42] - 45 x[43]
   - x[44] - 45 x[45] - 7 x[46] - 15 x[47] - 99 x[48] - 40 x[49] - x[50]
   - 97 x[51] - 49 x[52] - 91 x[53] - 6 x[54] - 24 x[55] - 69 x[56]
   - 66 x[57] - 82 x[58] - 13 x[59]
Subject To
 primal_upper: 70 x[0] + 50 x[1] + 40 x[2] + 13 x[3] + 86 x[4] + 84 x[5]
   + 47 x[6] + 30 x[7] + 39 x[8] + 56 x[9] + 54 x[10] + 33 x[11] + 50 x[12]
   + 2 x[13] + 19 x[14] + 75 x[15] + 63 x[16] + 2 x[17] + 63 x[18]
   + 100 x[19] + 15 x[20] + 54 x[21] + 34 x[22] + 89 x[23] + 71 x[24]
   + 82 x[25] + 20 x[26] + 6 x[27] + 32 x[28] + 37 x[29] + 92 x[30]
   + 22 x[31] + 46 x[32] + 27 x[33] + 94 x[34] + 27 x[35] + 34 x[36]
   + 91 x[37] + 34 x[38] + 33 x[39] + 77 x[40] + 60 x[41] + 76 x[42]
   + 76 x[43] + 93 x[44] + 61 x[45] + 84 x[46] + 72 x[47] + x[48]
   + 90 x[49] + 77 x[50] + 58 x[51] + 55 x[52] + 42 x[53] + 75 x[54]
   + 30 x[55] + 35 x[56] + 21 x[57] + 98 x[58] + 84 x[59] + 7 r[0] + 5 r[1]
   + 4 r[2] + 1.3 r[3] + 8.6 r[4] + 8.4 r[5] + 4.7 r[6] + 3 r[7] + 3.9 r[8]
   + 5.6 r[9] + 5.4 r[10] + 3.3 r[11] + 5 r[12] + 0.2 r[13] + 1.9 r[14]
   + 7.5 r[15] + 6.3 r[16] + 0.2 r[17] + 6.3 r[18] + 10 r[19] + 1.5 r[20]
   + 5.4 r[21] + 3.4 r[22] + 8.9 r[23] + 7.1 r[24] + 8.2 r[25] + 2 r[26]
   + 0.6 r[27] + 3.2 r[28] + 3.7 r[29] + 9.2 r[30] + 2.2 r[31] + 4.6 r[32]
   + 2.7 r[33] + 9.4 r[34] + 2.7 r[35] + 3.4 r[36] + 9.1 r[37] + 3.4 r[38]
   + 3.3 r[39] + 7.7 r[40] + 6 r[41] + 7.6 r[42] + 7.6 r[43] + 9.3 r[44]
   + 6.1 r[45] + 8.4 r[46] + 7.2 r[47] + 0.1 r[48] + 9 r[49] + 7.7 r[50]
   + 5.8 r[51] + 5.5 r[52] + 4.2 r[53] + 7.5 r[54] + 3 r[55] + 3.5 r[56]
   + 2.1 r[57] + 9.8 r[58] + 8.4 r[59] <= 302
 primal_lower: 2.994204536955999 x[0] + 1.995808279835608 x[1]
   + 3.867440721939812 x[2] + 3.651604627639196 x[3]
   + 3.801022315826809 x[4] + 0.0653425192221961 x[5]
   + 4.359893126155136 x[6] + 0.5370634161217694 x[7]
   + 2.965023958625042 x[8] + 3.759482331073642 x[9]
   + 0.6582476998726666 x[10] + 2.228351283034321 x[11]
   + 2.254391489577502 x[12] + 1.946548325328523 x[13]
   + 4.153947220729384 x[14] + 1.438176379046766 x[15]
   + 0.44063270171434 x[16] + 0.662496959503426 x[17]
   + 2.576994059369611 x[18] + 1.50655622063787 x[19]
   + 3.264104271154465 x[20] + 2.722061480838044 x[21]
   + 2.877557023630991 x[22] + 1.895683187465256 x[23]
   + 0.4077955291625062 x[24] + 3.49885909946767 x[25]
   + 1.338516522462044 x[26] + 0.1042294696907612 x[27]
   + 3.43556900145202 x[28] + 1.475070799484623 x[29]
   + 4.269058022428605 x[30] + 2.671036283580332 x[31]
   + 3.997204809537477 x[32] + 0.7699124223428448 x[33]
   + 2.293146824835098 x[34] + 3.616770452868619 x[35]
   + 1.126931776758558 x[36] + 2.138222015789747 x[37]
   + 3.278139076512316 x[38] + 3.037298581704216 x[39]
   + 1.040803153428357 x[40] + 0.4839708576970131 x[41]
   + 0.1257828953474178 x[42] + 3.493090980734026 x[43]
   + 0.087110860993873 x[44] + 3.206211440809966 x[45]
   + 4.484661339679071 x[46] + 3.236087633222202 x[47]
   + 0.5994108673245047 x[48] + 2.019598165848249 x[49]
   + 3.855356800853754 x[50] + 0.7425261185829335 x[51]
   + 3.660617096980907 x[52] + 2.236090860292423 x[53]
   + 4.24686553863285 x[54] + 2.59221087410294 x[55]
   + 0.8387051985555989 x[56] + 1.286032848186513 x[57]
   + 1.560154260968454 x[58] + 2.683357023876553 x[59] + 3 u[0] + 68 u[1]
   + 46 u[2] + 75 u[3] + 28 u[4] + 97 u[5] + 9 u[6] + 11 u[7] + 21 u[8]
   + 42 u[9] + 55 u[10] + 95 u[11] + 24 u[12] + 48 u[13] + 72 u[14]
   + 60 u[15] + 41 u[16] + 28 u[17] + 57 u[18] + 14 u[19] + 9 u[20]
   + 7 u[21] + 92 u[22] + 86 u[23] + 36 u[24] + 64 u[25] + 6 u[26]
   + 87 u[27] + 97 u[28] + 67 u[29] + 81 u[30] + 59 u[31] + 43 u[32]
   + 37 u[33] + 96 u[34] + 17 u[35] + 32 u[36] + 36 u[37] + 44 u[38]
   + 14 u[39] + 15 u[40] + 77 u[41] + 54 u[42] + 85 u[43] + 27 u[44]
   + 94 u[45] + 93 u[46] + 81 u[47] + 71 u[48] + 84 u[49] + 50 u[50]
   + 52 u[51] + 13 u[52] + 56 u[53] + 12 u[54] + 39 u[55] + 73 u[56]
   + 18 u[57] + 16 u[58] + 30 u[59] <= 43013
 mccormick1[0]: - u[0] + r[0] <= 0
 mccormick1[1]: - u[1] + r[1] <= 0
 mccormick1[2]: - u[2] + r[2] <= 0
 mccormick1[3]: - u[3] + r[3] <= 0
 mccormick1[4]: - u[4] + r[4] <= 0
 mccormick1[5]: - u[5] + r[5] <= 0
 mccormick1[6]: - u[6] + r[6] <= 0
 mccormick1[7]: - u[7] + r[7] <= 0
 mccormick1[8]: - u[8] + r[8] <= 0
 mccormick1[9]: - u[9] + r[9] <= 0
 mccormick1[10]: - u[10] + r[10] <= 0
 mccormick1[11]: - u[11] + r[11] <= 0
 mccormick1[12]: - u[12] + r[12] <= 0
 mccormick1[13]: - u[13] + r[13] <= 0
 mccormick1[14]: - u[14] + r[14] <= 0
 mccormick1[15]: - u[15] + r[15] <= 0
 mccormick1[16]: - u[16] + r[16] <= 0
 mccormick1[17]: - u[17] + r[17] <= 0
 mccormick1[18]: - u[18] + r[18] <= 0
 mccormick1[19]: - u[19] + r[19] <= 0
 mccormick1[20]: - u[20] + r[20] <= 0
 mccormick1[21]: - u[21] + r[21] <= 0
 mccormick1[22]: - u[22] + r[22] <= 0
 mccormick1[23]: - u[23] + r[23] <= 0
 mccormick1[24]: - u[24] + r[24] <= 0
 mccormick1[25]: - u[25] + r[25] <= 0
 mccormick1[26]: - u[26] + r[26] <= 0
 mccormick1[27]: - u[27] + r[27] <= 0
 mccormick1[28]: - u[28] + r[28] <= 0
 mccormick1[29]: - u[29] + r[29] <= 0
 mccormick1[30]: - u[30] + r[30] <= 0
 mccormick1[31]: - u[31] + r[31] <= 0
 mccormick1[32]: - u[32] + r[32] <= 0
 mccormick1[33]: - u[33] + r[33] <= 0
 mccormick1[34]: - u[34] + r[34] <= 0
 mccormick1[35]: - u[35] + r[35] <= 0
 mccormick1[36]: - u[36] + r[36] <= 0
 mccormick1[37]: - u[37] + r[37] <= 0
 mccormick1[38]: - u[38] + r[38] <= 0
 mccormick1[39]: - u[39] + r[39] <= 0
 mccormick1[40]: - u[40] + r[40] <= 0
 mccormick1[41]: - u[41] + r[41] <= 0
 mccormick1[42]: - u[42] + r[42] <= 0
 mccormick1[43]: - u[43] + r[43] <= 0
 mccormick1[44]: - u[44] + r[44] <= 0
 mccormick1[45]: - u[45] + r[45] <= 0
 mccormick1[46]: - u[46] + r[46] <= 0
 mccormick1[47]: - u[47] + r[47] <= 0
 mccormick1[48]: - u[48] + r[48] <= 0
 mccormick1[49]: - u[49] + r[49] <= 0
 mccormick1[50]: - u[50] + r[50] <= 0
 mccormick1[51]: - u[51] + r[51] <= 0
 mccormick1[52]: - u[52] + r[52] <= 0
 mccormick1[53]: - u[53] + r[53] <= 0
 mccormick1[54]: - u[54] + r[54] <= 0
 mccormick1[55]: - u[55] + r[55] <= 0
 mccormick1[56]: - u[56] + r[56] <= 0
 mccormick1[57]: - u[57] + r[57] <= 0
 mccormick1[58]: - u[58] + r[58] <= 0
 mccormick1[59]: - u[59] + r[59] <= 0
 mccormick2[0]: - x[0] + r[0] <= 0
 mccormick2[1]: - x[1] + r[1] <= 0
 mccormick2[2]: - x[2] + r[2] <= 0
 mccormick2[3]: - x[3] + r[3] <= 0
 mccormick2[4]: - x[4] + r[4] <= 0
 mccormick2[5]: - x[5] + r[5] <= 0
 mccormick2[6]: - x[6] + r[6] <= 0
 mccormick2[7]: - x[7] + r[7] <= 0
 mccormick2[8]: - x[8] + r[8] <= 0
 mccormick2[9]: - x[9] + r[9] <= 0
 mccormick2[10]: - x[10] + r[10] <= 0
 mccormick2[11]: - x[11] + r[11] <= 0
 mccormick2[12]: - x[12] + r[12] <= 0
 mccormick2[13]: - x[13] + r[13] <= 0
 mccormick2[14]: - x[14] + r[14] <= 0
 mccormick2[15]: - x[15] + r[15] <= 0
 mccormick2[16]: - x[16] + r[16] <= 0
 mccormick2[17]: - x[17] + r[17] <= 0
 mccormick2[18]: - x[18] + r[18] <= 0
 mccormick2[19]: - x[19] + r[19] <= 0
 mccormick2[20]: - x[20] + r[20] <= 0
 mccormick2[21]: - x[21] + r[21] <= 0
 mccormick2[22]: - x[22] + r[22] <= 0
 mccormick2[23]: - x[23] + r[23] <= 0
 mccormick2[24]: - x[24] + r[24] <= 0
 mccormick2[25]: - x[25] + r[25] <= 0
 mccormick2[26]: - x[26] + r[26] <= 0
 mccormick2[27]: - x[27] + r[27] <= 0
 mccormick2[28]: - x[28] + r[28] <= 0
 mccormick2[29]: - x[29] + r[29] <= 0
 mccormick2[30]: - x[30] + r[30] <= 0
 mccormick2[31]: - x[31] + r[31] <= 0
 mccormick2[32]: - x[32] + r[32] <= 0
 mccormick2[33]: - x[33] + r[33] <= 0
 mccormick2[34]: - x[34] + r[34] <= 0
 mccormick2[35]: - x[35] + r[35] <= 0
 mccormick2[36]: - x[36] + r[36] <= 0
 mccormick2[37]: - x[37] + r[37] <= 0
 mccormick2[38]: - x[38] + r[38] <= 0
 mccormick2[39]: - x[39] + r[39] <= 0
 mccormick2[40]: - x[40] + r[40] <= 0
 mccormick2[41]: - x[41] + r[41] <= 0
 mccormick2[42]: - x[42] + r[42] <= 0
 mccormick2[43]: - x[43] + r[43] <= 0
 mccormick2[44]: - x[44] + r[44] <= 0
 mccormick2[45]: - x[45] + r[45] <= 0
 mccormick2[46]: - x[46] + r[46] <= 0
 mccormick2[47]: - x[47] + r[47] <= 0
 mccormick2[48]: - x[48] + r[48] <= 0
 mccormick2[49]: - x[49] + r[49] <= 0
 mccormick2[50]: - x[50] + r[50] <= 0
 mccormick2[51]: - x[51] + r[51] <= 0
 mccormick2[52]: - x[52] + r[52] <= 0
 mccormick2[53]: - x[53] + r[53] <= 0
 mccormick2[54]: - x[54] + r[54] <= 0
 mccormick2[55]: - x[55] + r[55] <= 0
 mccormick2[56]: - x[56] + r[56] <= 0
 mccormick2[57]: - x[57] + r[57] <= 0
 mccormick2[58]: - x[58] + r[58] <= 0
 mccormick2[59]: - x[59] + r[59] <= 0
 mccormick3[0]: x[0] + u[0] - r[0] <= 1
 mccormick3[1]: x[1] + u[1] - r[1] <= 1
 mccormick3[2]: x[2] + u[2] - r[2] <= 1
 mccormick3[3]: x[3] + u[3] - r[3] <= 1
 mccormick3[4]: x[4] + u[4] - r[4] <= 1
 mccormick3[5]: x[5] + u[5] - r[5] <= 1
 mccormick3[6]: x[6] + u[6] - r[6] <= 1
 mccormick3[7]: x[7] + u[7] - r[7] <= 1
 mccormick3[8]: x[8] + u[8] - r[8] <= 1
 mccormick3[9]: x[9] + u[9] - r[9] <= 1
 mccormick3[10]: x[10] + u[10] - r[10] <= 1
 mccormick3[11]: x[11] + u[11] - r[11] <= 1
 mccormick3[12]: x[12] + u[12] - r[12] <= 1
 mccormick3[13]: x[13] + u[13] - r[13] <= 1
 mccormick3[14]: x[14] + u[14] - r[14] <= 1
 mccormick3[15]: x[15] + u[15] - r[15] <= 1
 mccormick3[16]: x[16] + u[16] - r[16] <= 1
 mccormick3[17]: x[17] + u[17] - r[17] <= 1
 mccormick3[18]: x[18] + u[18] - r[18] <= 1
 mccormick3[19]: x[19] + u[19] - r[19] <= 1
 mccormick3[20]: x[20] + u[20] - r[20] <= 1
 mccormick3[21]: x[21] + u[21] - r[21] <= 1
 mccormick3[22]: x[22] + u[22] - r[22] <= 1
 mccormick3[23]: x[23] + u[23] - r[23] <= 1
 mccormick3[24]: x[24] + u[24] - r[24] <= 1
 mccormick3[25]: x[25] + u[25] - r[25] <= 1
 mccormick3[26]: x[26] + u[26] - r[26] <= 1
 mccormick3[27]: x[27] + u[27] - r[27] <= 1
 mccormick3[28]: x[28] + u[28] - r[28] <= 1
 mccormick3[29]: x[29] + u[29] - r[29] <= 1
 mccormick3[30]: x[30] + u[30] - r[30] <= 1
 mccormick3[31]: x[31] + u[31] - r[31] <= 1
 mccormick3[32]: x[32] + u[32] - r[32] <= 1
 mccormick3[33]: x[33] + u[33] - r[33] <= 1
 mccormick3[34]: x[34] + u[34] - r[34] <= 1
 mccormick3[35]: x[35] + u[35] - r[35] <= 1
 mccormick3[36]: x[36] + u[36] - r[36] <= 1
 mccormick3[37]: x[37] + u[37] - r[37] <= 1
 mccormick3[38]: x[38] + u[38] - r[38] <= 1
 mccormick3[39]: x[39] + u[39] - r[39] <= 1
 mccormick3[40]: x[40] + u[40] - r[40] <= 1
 mccormick3[41]: x[41] + u[41] - r[41] <= 1
 mccormick3[42]: x[42] + u[42] - r[42] <= 1
 mccormick3[43]: x[43] + u[43] - r[43] <= 1
 mccormick3[44]: x[44] + u[44] - r[44] <= 1
 mccormick3[45]: x[45] + u[45] - r[45] <= 1
 mccormick3[46]: x[46] + u[46] - r[46] <= 1
 mccormick3[47]: x[47] + u[47] - r[47] <= 1
 mccormick3[48]: x[48] + u[48] - r[48] <= 1
 mccormick3[49]: x[49] + u[49] - r[49] <= 1
 mccormick3[50]: x[50] + u[50] - r[50] <= 1
 mccormick3[51]: x[51] + u[51] - r[51] <= 1
 mccormick3[52]: x[52] + u[52] - r[52] <= 1
 mccormick3[53]: x[53] + u[53] - r[53] <= 1
 mccormick3[54]: x[54] + u[54] - r[54] <= 1
 mccormick3[55]: x[55] + u[55] - r[55] <= 1
 mccormick3[56]: x[56] + u[56] - r[56] <= 1
 mccormick3[57]: x[57] + u[57] - r[57] <= 1
 mccormick3[58]: x[58] + u[58] - r[58] <= 1
 mccormick3[59]: x[59] + u[59] - r[59] <= 1
Bounds
Binaries
 x[0] x[1] x[2] x[3] x[4] x[5] x[6] x[7] x[8] x[9] x[10] x[11] x[12] x[13]
 x[14] x[15] x[16] x[17] x[18] x[19] x[20] x[21] x[22] x[23] x[24] x[25]
 x[26] x[27] x[28] x[29] x[30] x[31] x[32] x[33] x[34] x[35] x[36] x[37]
 x[38] x[39] x[40] x[41] x[42] x[43] x[44] x[45] x[46] x[47] x[48] x[49]
 x[50] x[51] x[52] x[53] x[54] x[55] x[56] x[57] x[58] x[59] u[0] u[1] u[2]
 u[3] u[4] u[5] u[6] u[7] u[8] u[9] u[10] u[11] u[12] u[13] u[14] u[15]
 u[16] u[17] u[18] u[19] u[20] u[21] u[22] u[23] u[24] u[25] u[26] u[27]
 u[28] u[29] u[30] u[31] u[32] u[33] u[34] u[35] u[36] u[37] u[38] u[39]
 u[40] u[41] u[42] u[43] u[44] u[45] u[46] u[47] u[48] u[49] u[50] u[51]
 u[52] u[53] u[54] u[55] u[56] u[57] u[58] u[59] r[0] r[1] r[2] r[3] r[4]
 r[5] r[6] r[7] r[8] r[9] r[10] r[11] r[12] r[13] r[14] r[15] r[16] r[17]
 r[18] r[19] r[20] r[21] r[22] r[23] r[24] r[25] r[26] r[27] r[28] r[29]
 r[30] r[31] r[32] r[33] r[34] r[35] r[36] r[37] r[38] r[39] r[40] r[41]
 r[42] r[43] r[44] r[45] r[46] r[47] r[48] r[49] r[50] r[51] r[52] r[53]
 r[54] r[55] r[56] r[57] r[58] r[59]
End
